p cnf 1438 2222
7 -9 -29 101 0
7 -9 -29 -101 0
13 -35 44 102 0
44 -45 -48 -102 0
-50 60 103 104 0
-50 60 103 -104 0
-50 60 -103 104 0
-50 60 -103 -104 0
1 2 13 105 0
13 21 -105 106 0
21 -29 -106 107 0
-29 -36 -75 -107 0
1 -9 12 108 0
12 -13 -108 109 0
-13 47 -109 110 0
47 59 -110 111 0
59 83 -84 -111 0
-13 29 47 112 0
47 -53 -97 -112 0
32 -54 -58 -70 0
-7 24 48 113 0
-7 24 48 -113 0
31 94 114 115 0
31 94 114 -115 0
31 94 -114 115 0
31 94 -114 -115 0
-3 -5 11 116 0
11 59 -116 117 0
59 -90 -99 -117 0
-6 41 118 119 0
-6 41 118 -119 0
-6 41 -118 119 0
-6 41 -118 -119 0
-2 17 -28 120 0
-28 67 -120 121 0
67 68 -121 122 0
68 -77 -100 -122 0
37 61 78 123 0
78 88 -123 124 0
88 89 -92 -124 0
31 -70 73 125 0
73 -79 82 -125 0
-4 28 37 126 0
37 -75 91 -126 0
81 -88 97 127 0
81 -88 97 -127 0
-2 23 -31 128 0
-31 -48 66 -128 0
-20 57 -61 129 0
-61 -83 -129 130 0
-83 86 -130 131 0
86 92 -99 -131 0
-35 38 -50 132 0
-50 63 -132 133 0
63 -68 -133 134 0
-68 -84 -134 135 0
-84 87 -90 -135 0
22 34 -56 136 0
-56 -65 -136 137 0
-65 76 -137 138 0
76 -77 -95 -138 0
14 -42 44 83 0
32 87 139 140 0
32 87 139 -140 0
32 87 -139 140 0
32 87 -139 -140 0
-22 -51 -77 141 0
-22 -51 -77 -141 0
-70 85 142 143 0
-70 85 142 -143 0
-70 85 -142 143 0
-70 85 -142 -143 0
-3 -15 44 144 0
44 -50 -92 -144 0
3 10 37 145 0
37 -41 -145 146 0
-41 -60 -146 147 0
-60 -69 89 -147 0
-37 45 -83 -97 0
-31 44 69 148 0
-31 44 69 -148 0
13 -19 -29 36 0
8 44 54 149 0
54 -82 98 -149 0
61 -62 -84 150 0
61 -62 -84 -150 0
-23 -74 -85 -90 0
12 64 -77 -92 0
17 22 38 151 0
38 40 -151 152 0
40 -48 -152 153 0
-48 -66 -153 154 0
-66 69 -154 155 0
69 -79 94 -155 0
19 24 39 156 0
39 -76 -156 157 0
-76 -88 -94 -157 0
37 -57 71 158 0
71 -73 -93 -158 0
79 -80 92 159 0
79 -80 92 -159 0
1 12 -14 160 0
-14 -18 -160 161 0
-18 45 -161 162 0
45 61 -162 163 0
61 63 -163 164 0
63 -85 -164 165 0
-85 88 90 -165 0
-6 19 68 -73 0
-11 -46 -85 89 0
-31 -43 63 -73 0
26 -62 -71 77 0
-14 -23 -30 166 0
-30 34 -166 167 0
34 -47 -167 168 0
-47 71 73 -168 0
-13 16 -31 169 0
-31 81 94 -169 0
-6 -56 -85 -96 0
-7 27 -32 170 0
-32 35 -74 -170 0
3 6 -8 171 0
-8 -17 -171 172 0
-17 -43 -172 173 0
-43 -54 65 -173 0
4 -53 58 174 0
58 -71 -174 175 0
-71 89 -99 -175 0
36 92 97 176 0
36 92 97 -176 0
-1 11 29 177 0
29 36 -177 178 0
36 37 98 -178 0
-31 34 -47 -64 0
-26 80 88 179 0
88 91 98 -179 0
10 -21 43 180 0
43 62 -180 181 0
62 -68 -181 182 0
-68 -85 -87 -182 0
71 -88 -93 96 0
-4 -63 183 184 0
-4 -63 183 -184 0
-4 -63 -183 184 0
-4 -63 -183 -184 0
-21 36 -61 185 0
-61 79 -185 186 0
79 82 88 -186 0
21 32 -66 -95 0
37 -51 86 -88 0
3 25 34 187 0
34 74 -187 188 0
74 95 96 -188 0
35 76 91 189 0
35 76 91 -189 0
-24 90 -93 190 0
-24 90 -93 -190 0
-19 -23 191 192 0
-19 -23 191 -192 0
-19 -23 -191 192 0
-19 -23 -191 -192 0
27 58 -75 193 0
27 58 -75 -193 0
-9 31 -54 194 0
-54 -58 -70 -194 0
2 -5 -49 195 0
-49 51 -195 196 0
51 -52 -196 197 0
-52 62 -197 198 0
62 -66 -198 199 0
-66 -69 73 -199 0
11 -22 -33 200 0
-33 72 -200 201 0
72 96 99 -201 0
12 30 -35 202 0
12 30 -35 -202 0
-39 44 48 203 0
48 -60 -203 204 0
-60 62 66 -204 0
-3 20 -45 205 0
-45 67 -205 206 0
67 71 -206 207 0
71 83 -100 -207 0
13 23 -32 -84 0
9 13 -16 -64 0
13 -28 39 208 0
39 45 -208 209 0
45 48 -209 210 0
48 50 -210 211 0
50 -64 -80 -211 0
-18 -42 -47 -60 0
24 29 -32 212 0
-32 -45 -212 213 0
-45 -87 -213 214 0
-87 -92 -99 -214 0
13 -15 -18 215 0
-18 -39 -62 -215 0
-4 51 216 217 0
-4 51 216 -217 0
-4 51 -216 217 0
-4 51 -216 -217 0
6 70 94 218 0
6 70 94 -218 0
44 45 -60 98 0
12 -21 42 58 0
3 -15 19 219 0
19 21 -219 220 0
21 -24 32 -220 0
13 19 -56 221 0
13 19 -56 -221 0
-4 -78 222 223 0
-4 -78 222 -223 0
-4 -78 -222 223 0
-4 -78 -222 -223 0
3 4 -45 224 0
-45 -49 -224 225 0
-49 -53 80 -225 0
-4 17 -82 -92 0
34 -39 -56 226 0
-56 63 -226 227 0
63 68 -227 228 0
68 -73 83 -228 0
20 -22 -27 229 0
-27 31 -229 230 0
31 37 -230 231 0
37 48 -231 232 0
48 57 100 -232 0
-9 -22 26 233 0
26 38 -233 234 0
38 -41 -234 235 0
-41 47 -235 236 0
47 -53 73 -236 0
74 91 237 238 0
74 91 237 -238 0
74 91 -237 238 0
74 91 -237 -238 0
-5 -59 -79 239 0
-79 -82 -98 -239 0
-2 -46 -76 -85 0
-19 -23 64 240 0
64 75 -240 241 0
75 -76 -241 242 0
-76 -86 -242 243 0
-86 -89 -243 244 0
-89 92 -100 -244 0
-12 25 -59 245 0
-59 74 96 -245 0
-3 -5 29 246 0
29 57 -246 247 0
57 -67 -247 248 0
-67 -75 -80 -248 0
-14 -17 -42 55 0
18 -58 62 249 0
18 -58 62 -249 0
-6 31 54 59 0
12 -66 250 251 0
12 -66 250 -251 0
12 -66 -250 251 0
12 -66 -250 -251 0
12 -26 -41 46 0
36 78 252 253 0
36 78 252 -253 0
36 78 -252 253 0
36 78 -252 -253 0
-1 -13 30 254 0
-1 -13 30 -254 0
30 -36 58 255 0
58 59 -71 -255 0
2 -22 26 256 0
26 -41 -256 257 0
-41 55 -257 258 0
55 58 -258 259 0
58 60 92 -259 0
-24 44 64 260 0
64 67 -260 261 0
67 68 -100 -261 0
18 -32 54 262 0
18 -32 54 -262 0
-9 41 52 -98 0
-25 -57 60 263 0
-25 -57 60 -263 0
20 21 73 264 0
20 21 73 -264 0
30 49 51 265 0
51 53 -265 266 0
53 88 -266 267 0
88 -97 100 -267 0
47 52 -94 268 0
47 52 -94 -268 0
-25 -38 -48 269 0
-25 -38 -48 -269 0
8 19 76 270 0
76 -85 -97 -270 0
-7 13 -49 271 0
-7 13 -49 -271 0
3 22 23 272 0
23 -58 -272 273 0
-58 67 77 -273 0
10 -15 -34 274 0
-34 36 -274 275 0
36 41 -47 -275 0
44 -46 -79 -99 0
26 28 -43 276 0
-43 45 81 -276 0
-51 -73 -83 277 0
-51 -73 -83 -277 0
2 -46 -69 -84 0
-28 -41 63 278 0
-28 -41 63 -278 0
4 -5 -19 279 0
-19 29 -279 280 0
29 -60 -280 281 0
-60 -62 -281 282 0
-62 -85 -282 283 0
-85 87 -88 -283 0
5 14 -26 284 0
-26 -30 66 -284 0
-2 -47 78 285 0
-2 -47 78 -285 0
11 14 43 99 0
-2 89 100 286 0
-2 89 100 -286 0
68 -82 86 -97 0
7 8 -24 287 0
-24 28 -287 288 0
28 30 -288 289 0
30 51 -289 290 0
51 -58 -290 291 0
-58 -67 -291 292 0
-67 -84 -89 -292 0
36 51 293 294 0
36 51 293 -294 0
36 51 -293 294 0
36 51 -293 -294 0
-17 -42 53 295 0
53 54 -295 296 0
54 -69 -296 297 0
-69 -72 99 -297 0
31 34 56 298 0
56 -71 -80 -298 0
31 -52 64 -65 0
17 -23 -35 299 0
-35 -56 -299 300 0
-56 58 -300 301 0
58 59 -301 302 0
59 -61 -302 303 0
-61 63 -303 304 0
63 64 -304 305 0
64 -66 -71 -305 0
-9 30 -51 306 0
-9 30 -51 -306 0
2 3 22 307 0
22 37 -307 308 0
37 -60 -308 309 0
-60 -69 -309 310 0
-69 81 92 -310 0
8 -44 -94 311 0
8 -44 -94 -311 0
9 -37 55 -73 0
30 47 -87 92 0
12 26 -41 312 0
-41 -57 -312 313 0
-57 -65 93 -313 0
41 -45 -84 90 0
-6 -13 314 315 0
-6 -13 314 -315 0
-6 -13 -314 315 0
-6 -13 -314 -315 0
31 45 -56 67 0
1 33 -79 -84 0
14 21 30 316 0
30 32 -316 317 0
32 37 -317 318 0
37 48 -318 319 0
48 -62 -319 320 0
-62 -65 75 -320 0
-6 -33 41 50 0
-12 17 -37 321 0
-37 -68 -321 322 0
-68 -77 -322 323 0
-77 88 -323 324 0
88 89 96 -324 0
-28 -60 79 325 0
79 -84 95 -325 0
-12 37 -54 326 0
-54 95 99 -326 0
2 35 -68 327 0
-68 -81 100 -327 0
4 -10 13 328 0
13 31 -328 329 0
31 -33 -83 -329 0
18 80 90 330 0
18 80 90 -330 0
-31 -69 89 331 0
-31 -69 89 -331 0
51 52 -57 332 0
-57 -71 -332 333 0
-71 79 -81 -333 0
35 63 334 335 0
35 63 334 -335 0
35 63 -334 335 0
35 63 -334 -335 0
-13 17 -39 336 0
-39 43 -336 337 0
43 -75 86 -337 0
-35 58 -73 338 0
-73 -78 -338 339 0
-78 -82 -339 340 0
-82 95 100 -340 0
-36 60 -67 341 0
-36 60 -67 -341 0
33 -36 43 342 0
43 78 -342 343 0
78 -88 -99 -343 0
77 79 97 344 0
77 79 97 -344 0
2 5 -32 345 0
-32 38 -345 346 0
38 63 -94 -346 0
-1 52 347 348 0
-1 52 347 -348 0
-1 52 -347 348 0
-1 52 -347 -348 0
7 -88 91 349 0
7 -88 91 -349 0
10 17 -22 350 0
-22 75 76 -350 0
-34 74 80 95 0
-33 36 -57 -74 0
-47 66 71 351 0
71 80 -92 -351 0
2 -17 -43 352 0
-43 54 -352 353 0
54 56 -353 354 0
56 -77 -354 355 0
-77 -79 -355 356 0
-79 88 -356 357 0
88 -94 -98 -357 0
-17 -46 97 358 0
-17 -46 97 -358 0
27 55 82 359 0
27 55 82 -359 0
-4 -27 34 360 0
34 -40 71 -360 0
28 -32 -94 361 0
28 -32 -94 -361 0
-29 60 63 362 0
63 -70 76 -362 0
1 2 -9 363 0
-9 -14 -363 364 0
-14 -20 -364 365 0
-20 79 -365 366 0
79 93 94 -366 0
-33 42 -45 367 0
-45 -69 -73 -367 0
-10 -16 -29 368 0
-29 56 -368 369 0
56 58 -369 370 0
58 75 -370 371 0
75 -88 -371 372 0
-88 95 -96 -372 0
2 -3 41 373 0
41 -51 -373 374 0
-51 67 -78 -374 0
-11 -15 -20 375 0
-20 -50 95 -375 0
-13 -27 -31 376 0
-31 -35 -376 377 0
-35 45 -377 378 0
45 -64 -378 379 0
-64 -84 -379 380 0
-84 89 -96 -380 0
5 -16 -45 381 0
-45 47 87 -381 0
-15 -18 31 98 0
27 -32 39 382 0
39 40 -382 383 0
40 75 -88 -383 0
14 16 29 384 0
29 30 -384 385 0
30 46 -385 386 0
46 50 -386 387 0
50 -56 -80 -387 0
9 22 25 388 0
25 27 -388 389 0
27 -41 -389 390 0
-41 -58 -390 391 0
-58 84 -94 -391 0
-21 -27 392 393 0
-21 -27 392 -393 0
-21 -27 -392 393 0
-21 -27 -392 -393 0
10 11 -17 394 0
-17 38 -394 395 0
38 -57 -98 -395 0
7 33 -46 396 0
-46 -56 -67 -396 0
20 26 69 397 0
20 26 69 -397 0
-35 -42 69 398 0
69 -90 98 -398 0
26 -39 -62 399 0
-62 -81 94 -399 0
24 25 -36 400 0
24 25 -36 -400 0
-3 10 37 401 0
37 -38 -401 402 0
-38 -49 -402 403 0
-49 -64 -403 404 0
-64 -67 -404 405 0
-67 -88 -100 -405 0
-26 -31 37 406 0
37 38 -406 407 0
38 66 98 -407 0
46 -75 78 408 0
78 -87 -90 -408 0
-35 40 69 409 0
69 -84 88 -409 0
22 -44 53 410 0
53 -54 -57 -410 0
-59 69 411 412 0
-59 69 411 -412 0
-59 69 -411 412 0
-59 69 -411 -412 0
10 11 22 413 0
22 30 -413 414 0
30 -38 -414 415 0
-38 -45 -84 -415 0
-6 10 -18 416 0
-18 21 -416 417 0
21 -22 -417 418 0
-22 56 -418 419 0
56 68 -419 420 0
68 92 -93 -420 0
-22 38 56 -62 0
41 -63 -67 -79 0
3 -16 33 57 0
-8 40 421 422 0
-8 40 421 -422 0
-8 40 -421 422 0
-8 40 -421 -422 0
-12 -14 20 423 0
20 68 -99 -423 0
-9 -15 50 424 0
-9 -15 50 -424 0
-1 -11 26 425 0
26 -37 -425 426 0
-37 76 -426 427 0
76 77 -86 -427 0
46 70 87 428 0
87 97 98 -428 0
40 -79 82 429 0
82 -88 91 -429 0
6 -13 37 430 0
37 46 -430 431 0
46 -84 100 -431 0
90 -97 432 433 0
90 -97 432 -433 0
90 -97 -432 433 0
90 -97 -432 -433 0
1 -8 -11 434 0
-11 32 -434 435 0
32 -40 -435 436 0
-40 -57 75 -436 0
-29 66 -70 437 0
-70 -92 95 -437 0
-4 -44 47 438 0
47 -59 -438 439 0
-59 72 -439 440 0
72 -77 -440 441 0
-77 -93 -441 442 0
-93 96 -99 -442 0
31 43 -65 443 0
-65 -74 -443 444 0
-74 85 -86 -444 0
23 -51 53 92 0
41 96 445 446 0
41 96 445 -446 0
41 96 -445 446 0
41 96 -445 -446 0
-31 -60 -86 447 0
-31 -60 -86 -447 0
-1 -79 94 448 0
-1 -79 94 -448 0
-12 -24 53 -59 0
-6 12 19 449 0
19 46 -449 450 0
46 -50 -450 451 0
-50 -69 -451 452 0
-69 -78 98 -452 0
-46 54 -92 453 0
-46 54 -92 -453 0
-40 53 78 454 0
-40 53 78 -454 0
7 22 -28 455 0
-28 -38 45 -455 0
17 53 63 -91 0
70 -71 -93 456 0
70 -71 -93 -456 0
-32 -83 -94 -99 0
-1 -77 457 458 0
-1 -77 457 -458 0
-1 -77 -457 458 0
-1 -77 -457 -458 0
3 21 73 -86 0
-3 26 31 459 0
31 47 -459 460 0
47 49 -460 461 0
49 -57 -461 462 0
-57 -75 -462 463 0
-75 78 -88 -463 0
28 33 48 464 0
48 -85 -97 -464 0
-2 88 465 466 0
-2 88 465 -466 0
-2 88 -465 466 0
-2 88 -465 -466 0
1 46 -66 467 0
-66 80 -82 -467 0
88 -89 468 469 0
88 -89 468 -469 0
88 -89 -468 469 0
88 -89 -468 -469 0
10 21 -23 470 0
-23 -27 -470 471 0
-27 54 -471 472 0
54 70 -472 473 0
70 72 -473 474 0
72 -94 -474 475 0
-94 97 99 -475 0
-15 28 77 -82 0
-20 -55 -94 98 0
-40 -52 72 -82 0
35 -71 -80 86 0
3 -23 -32 476 0
-32 -39 -476 477 0
-39 43 -477 478 0
43 -56 -478 479 0
-56 80 82 -479 0
-5 -22 25 480 0
25 -40 90 -480 0
-15 -65 -94 481 0
-15 -65 -94 -481 0
-16 36 -41 482 0
-41 44 -83 -482 0
-8 12 15 483 0
15 -17 -483 484 0
-17 -26 -484 485 0
-26 -52 -485 486 0
-52 -63 74 -486 0
1 6 13 487 0
13 -62 -487 488 0
-62 67 -488 489 0
67 -80 98 -489 0
7 45 490 491 0
7 45 490 -491 0
7 45 -490 491 0
7 45 -490 -491 0
-10 20 38 492 0
38 45 46 -492 0
7 -40 43 493 0
43 -56 -73 -493 0
-35 89 97 100 0
-2 5 19 494 0
19 -30 -494 495 0
-30 52 -495 496 0
52 71 -496 497 0
71 -77 -497 498 0
-77 -94 -96 -498 0
80 -97 499 500 0
80 -97 499 -500 0
80 -97 -499 500 0
80 -97 -499 -500 0
-13 -72 501 502 0
-13 -72 501 -502 0
-13 -72 -501 502 0
-13 -72 -501 -502 0
-4 -30 45 503 0
45 -70 -503 504 0
-70 88 -504 505 0
88 91 97 -505 0
30 41 -75 506 0
30 41 -75 -506 0
4 5 46 507 0
46 -60 -507 508 0
-60 95 -97 -508 0
12 34 43 83 0
-2 44 85 100 0
-33 99 509 510 0
-33 99 509 -510 0
-33 99 -509 510 0
-33 99 -509 -510 0
-28 -32 511 512 0
-28 -32 511 -512 0
-28 -32 -511 512 0
-28 -32 -511 -512 0
36 67 -84 513 0
36 67 -84 -513 0
-18 40 -63 514 0
-63 -67 -79 -514 0
5 8 11 515 0
11 -14 -515 516 0
-14 -58 -516 517 0
-58 60 -517 518 0
60 -61 -518 519 0
-61 71 -519 520 0
71 -75 -520 521 0
-75 -78 82 -521 0
20 -31 -42 81 0
21 39 -44 522 0
21 39 -44 -522 0
-9 -48 53 523 0
53 57 -523 524 0
57 -69 -524 525 0
-69 71 75 -525 0
-12 29 -54 526 0
-54 76 -526 527 0
76 80 92 -527 0
22 32 -41 -93 0
18 22 -25 -73 0
22 -37 48 528 0
48 54 -528 529 0
54 57 -529 530 0
57 59 -530 531 0
59 -73 -89 -531 0
-1 -8 -27 532 0
-27 -51 -532 533 0
-51 -56 -69 -533 0
33 38 -41 534 0
-41 -54 -96 -534 0
22 -24 -27 535 0
-27 -48 -71 -535 0
3 -13 60 536 0
3 -13 60 -536 0
7 15 79 537 0
7 15 79 -537 0
53 54 -69 538 0
53 54 -69 -538 0
21 -30 51 67 0
12 -24 28 539 0
28 30 -539 540 0
30 -33 41 -540 0
22 28 -65 541 0
22 28 -65 -541 0
-13 -87 542 543 0
-13 -87 542 -543 0
-13 -87 -542 543 0
-13 -87 -542 -543 0
-1 12 13 544 0
13 -54 -544 545 0
-54 -58 -545 546 0
-58 -62 89 -546 0
-13 26 -91 547 0
-13 26 -91 -547 0
9 43 -48 548 0
-48 -65 -548 549 0
-65 72 -549 550 0
72 77 -550 551 0
77 -82 92 -551 0
29 -31 -36 552 0
-36 40 -552 553 0
40 46 -553 554 0
46 57 66 -554 0
-18 -31 35 555 0
35 47 -555 556 0
47 -50 -556 557 0
-50 56 -557 558 0
56 -62 82 -558 0
-7 83 100 559 0
-7 83 100 -559 0
-14 -68 -88 -91 0
1 -9 -11 560 0
-11 -55 -560 561 0
-55 -85 -94 -561 0
5 -28 -32 562 0
-32 73 -562 563 0
73 84 -563 564 0
84 -85 -564 565 0
-85 -95 -98 -565 0
-21 34 -68 83 0
-12 -14 38 566 0
38 66 -566 567 0
66 -76 -567 568 0
-76 -84 -89 -568 0
-23 -26 -51 64 0
27 -67 71 569 0
27 -67 71 -569 0
-15 40 63 68 0
21 -75 570 571 0
21 -75 570 -571 0
21 -75 -570 571 0
21 -75 -570 -571 0
21 -35 -50 55 0
45 87 572 573 0
45 87 572 -573 0
45 87 -572 573 0
45 87 -572 -573 0
-10 -22 39 574 0
-10 -22 39 -574 0
1 39 -45 575 0
-45 67 -575 576 0
67 68 -80 -576 0
-9 11 -31 577 0
-31 35 -577 578 0
35 -50 -578 579 0
-50 64 -579 580 0
64 67 69 -580 0
-33 53 73 581 0
73 76 77 -581 0
-7 27 -41 63 0
-18 50 61 582 0
-18 50 61 -582 0
-34 -66 69 583 0
-34 -66 69 -583 0
-6 9 29 584 0
29 30 82 -584 0
-3 39 58 585 0
58 60 -585 586 0
60 62 97 -586 0
56 61 587 588 0
56 61 587 -588 0
56 61 -587 588 0
56 61 -587 -588 0
-6 -34 -47 -57 0
17 28 85 -94 0
-16 22 -58 589 0
-16 22 -58 -589 0
12 31 32 590 0
32 -67 -590 591 0
-67 76 86 -591 0
-8 19 -24 592 0
-24 -43 -592 593 0
-43 45 -593 594 0
45 50 -56 -594 0
53 -55 -88 595 0
53 -55 -88 -595 0
35 37 -52 596 0
-52 54 90 -596 0
-60 -82 -92 597 0
-60 -82 -92 -597 0
11 -55 -78 -93 0
-37 -50 72 598 0
-37 -50 72 -598 0
13 -14 -28 599 0
-28 38 -599 600 0
38 -69 -600 601 0
-69 -71 -601 602 0
-71 -94 -602 603 0
-94 96 -97 -603 0
14 23 -35 604 0
-35 -39 75 -604 0
8 -11 -56 87 0
9 20 23 52 0
-6 -11 98 605 0
-6 -11 98 -605 0
77 -91 95 606 0
77 -91 95 -606 0
16 17 -33 607 0
-33 37 -607 608 0
37 39 -608 609 0
39 60 -609 610 0
60 -67 -610 611 0
-67 -76 -611 612 0
-76 -93 -98 -612 0
8 45 60 613 0
8 45 60 -613 0
-26 -51 62 614 0
62 63 -614 615 0
63 -78 -81 -615 0
40 43 65 616 0
65 -80 -89 -616 0
40 -61 73 -74 0
26 -32 -44 617 0
-44 -65 -617 618 0
-65 67 -618 619 0
67 68 -619 620 0
68 -70 -620 621 0
-70 72 -621 622 0
72 73 -622 623 0
73 -75 -80 -623 0
-18 39 -60 624 0
-18 39 -60 -624 0
1 -19 625 626 0
1 -19 625 -626 0
1 -19 -625 626 0
1 -19 -625 -626 0
-3 11 12 627 0
12 31 -627 628 0
31 46 -628 629 0
46 -69 -629 630 0
-69 -78 90 -630 0
17 -53 631 632 0
17 -53 631 -632 0
17 -53 -631 632 0
17 -53 -631 -632 0
1 18 -46 633 0
-46 64 -82 -633 0
2 39 56 -96 0
21 35 -50 634 0
-50 -66 -74 -634 0
50 -54 -93 99 0
-15 -22 635 636 0
-15 -22 635 -636 0
-15 -22 -635 636 0
-15 -22 -635 -636 0
40 54 -65 76 0
10 42 -88 -93 0
23 30 39 637 0
39 41 -637 638 0
41 46 -638 639 0
46 57 -639 640 0
57 -71 -640 641 0
-71 -74 84 -641 0
5 -15 -42 642 0
-42 50 59 -642 0
4 -21 26 643 0
26 -46 -643 644 0
-46 -77 -644 645 0
-77 -86 -645 646 0
-86 97 98 -646 0
4 8 -37 647 0
-37 -69 -647 648 0
-69 88 -93 -648 0
9 -21 46 -63 0
11 44 -77 -90 0
13 -19 22 649 0
22 40 -649 650 0
40 -42 -92 -650 0
27 89 99 651 0
27 89 99 -651 0
-40 -78 98 652 0
-40 -78 98 -652 0
60 61 -66 653 0
-66 -80 -653 654 0
-80 88 -90 -654 0
2 44 72 655 0
2 44 72 -655 0
4 9 -22 656 0
-22 26 -656 657 0
26 -48 -657 658 0
-48 52 -658 659 0
52 -84 95 -659 0
-44 67 -82 660 0
-82 -87 -91 -660 0
-8 -45 69 -76 0
6 42 -45 661 0
-45 52 -661 662 0
52 87 -97 -662 0
-3 86 88 663 0
-3 86 88 -663 0
11 14 -41 664 0
-41 47 72 -664 0
-10 61 665 666 0
-10 61 665 -666 0
-10 61 -665 666 0
-10 61 -665 -666 0
16 -97 100 667 0
16 -97 100 -667 0
4 19 26 668 0
26 -31 -668 669 0
-31 84 85 -669 0
-43 83 89 670 0
-43 83 89 -670 0
-1 -42 45 671 0
45 -66 -83 -671 0
-3 -7 -56 672 0
-56 75 -672 673 0
75 80 89 -673 0
6 11 -26 674 0
-26 -52 -674 675 0
-52 63 -675 676 0
63 65 -676 677 0
65 -86 -677 678 0
-86 -88 97 -678 0
-26 -55 679 680 0
-26 -55 679 -680 0
-26 -55 -679 680 0
-26 -55 -679 -680 0
36 64 91 681 0
36 64 91 -681 0
-3 -13 -36 682 0
-36 43 -682 683 0
43 -49 80 -683 0
37 -41 684 685 0
37 -41 684 -685 0
37 -41 -684 685 0
37 -41 -684 -685 0
2 3 -38 686 0
-38 69 -686 687 0
69 72 -687 688 0
72 -79 85 -688 0
10 11 -18 689 0
-18 -23 -689 690 0
-23 -29 88 -690 0
4 -5 -42 691 0
-42 51 -691 692 0
51 -54 -692 693 0
-54 -78 -82 -693 0
-19 -25 -38 694 0
-38 65 -694 695 0
65 67 -695 696 0
67 84 -97 -696 0
4 11 -12 697 0
-12 50 -697 698 0
50 -60 -698 699 0
-60 76 -87 -699 0
-5 -20 -24 700 0
-24 -29 -59 -700 0
-22 -36 -40 701 0
-40 -44 -701 702 0
-44 54 -702 703 0
54 -73 -703 704 0
-73 -93 98 -704 0
7 14 -25 705 0
-25 -54 -705 706 0
-54 56 96 -706 0
-24 -27 40 707 0
-24 -27 40 -707 0
36 -41 48 708 0
48 49 -708 709 0
49 84 -97 -709 0
-3 23 25 710 0
25 38 -710 711 0
38 39 -711 712 0
39 55 -712 713 0
55 59 -713 714 0
59 -65 -89 -714 0
18 31 34 715 0
34 36 -715 716 0
36 -50 -716 717 0
-50 -67 93 -717 0
-7 -30 -36 718 0
-7 -30 -36 -718 0
19 20 -26 719 0
-26 47 -66 -719 0
16 42 -55 720 0
-55 -65 -76 -720 0
7 29 35 78 0
3 -44 -51 721 0
-51 78 -99 -721 0
35 -48 -71 -90 0
-9 33 34 -45 0
7 -12 19 722 0
19 46 -722 723 0
46 -47 -723 724 0
-47 -58 -724 725 0
-58 -73 -725 726 0
-73 -76 -97 -726 0
-35 -40 46 727 0
46 47 75 -727 0
55 -84 87 728 0
87 -96 -99 -728 0
-44 49 78 729 0
78 -93 97 -729 0
31 -53 62 730 0
62 -63 -66 -730 0
-68 78 731 732 0
-68 78 731 -732 0
-68 78 -731 732 0
-68 78 -731 -732 0
1 -2 19 733 0
19 20 -733 734 0
20 31 -734 735 0
31 39 -735 736 0
39 -47 -736 737 0
-47 -54 -93 -737 0
-15 19 -27 738 0
-27 30 -738 739 0
30 -31 -739 740 0
-31 65 77 -740 0
-31 47 65 -71 0
50 -72 -76 -88 0
12 -25 42 66 0
-8 -17 49 741 0
-8 -17 49 -741 0
-21 -23 29 77 0
-18 -24 59 742 0
-18 -24 59 -742 0
6 7 -10 743 0
-10 -20 -743 744 0
-20 35 -744 745 0
35 -46 -745 746 0
-46 85 -746 747 0
85 86 -95 -747 0
55 79 96 748 0
55 79 96 -748 0
9 49 -88 749 0
-88 91 -749 750 0
91 -97 100 -750 0
-6 15 -22 751 0
-22 46 -751 752 0
46 55 -93 -752 0
-1 4 10 753 0
10 -17 -753 754 0
-17 -20 -754 755 0
-20 41 -755 756 0
41 -49 -756 757 0
-49 -66 84 -757 0
-2 5 -8 758 0
-8 -38 -758 759 0
-38 75 -79 -759 0
-13 -53 56 760 0
56 -68 -760 761 0
-68 81 -86 -761 0
1 40 52 762 0
52 -74 -762 763 0
-74 -83 -763 764 0
-83 94 -95 -764 0
5 32 -60 62 0
3 -40 -69 -95 0
-10 -88 765 766 0
-10 -88 765 -766 0
-10 -88 -765 766 0
-10 -88 -765 -766 0
7 -21 -33 767 0
-33 62 -68 -767 0
-1 -15 21 768 0
21 28 -768 769 0
28 55 -769 770 0
55 -59 -770 771 0
-59 -78 -87 -771 0
-55 63 772 773 0
-55 63 772 -773 0
-55 63 -772 773 0
-55 63 -772 -773 0
-49 62 87 774 0
-49 62 87 -774 0
16 31 -37 775 0
-37 -47 54 -775 0
-2 26 62 776 0
62 72 -100 -776 0
-3 -8 79 -80 0
-41 -92 777 778 0
-41 -92 777 -778 0
-41 -92 -777 778 0
-41 -92 -777 -778 0
-10 -86 779 780 0
-10 -86 779 -780 0
-10 -86 -779 780 0
-10 -86 -779 -780 0
12 30 82 -95 0
-6 -12 35 781 0
35 40 -781 782 0
40 56 -782 783 0
56 58 -783 784 0
58 -66 -784 785 0
-66 -84 -785 786 0
-84 87 -97 -786 0
37 42 57 -94 0
-11 97 787 788 0
-11 97 787 -788 0
-11 97 -787 788 0
-11 97 -787 -788 0
10 55 -75 789 0
-75 89 -91 -789 0
97 -98 790 791 0
97 -98 790 -791 0
97 -98 -790 791 0
97 -98 -790 -791 0
-3 6 8 -29 0
19 30 -32 792 0
-32 -36 -792 793 0
-36 63 -793 794 0
63 79 81 -794 0
-3 7 -24 795 0
-24 37 -795 796 0
37 86 -91 -796 0
-29 -64 797 798 0
-29 -64 797 -798 0
-29 -64 -797 798 0
-29 -64 -797 -798 0
-49 -61 81 -91 0
44 -80 -89 95 0
12 -32 -41 799 0
-41 -48 -799 800 0
-48 52 -800 801 0
52 -65 -801 802 0
-65 89 91 -802 0
-3 -14 -31 803 0
-31 34 -803 804 0
34 -49 99 -804 0
-24 -74 805 806 0
-24 -74 805 -806 0
-24 -74 -805 806 0
-24 -74 -805 -806 0
-25 45 -50 807 0
-50 53 -92 -807 0
7 -17 21 808 0
21 24 -808 809 0
24 -26 -809 810 0
-26 -35 -810 811 0
-35 -61 -811 812 0
-61 -72 83 -812 0
10 15 22 813 0
22 -71 -813 814 0
-71 76 -89 -814 0
16 54 815 816 0
16 54 815 -816 0
16 54 -815 816 0
16 54 -815 -816 0
-19 29 47 817 0
47 54 55 -817 0
6 9 16 818 0
16 -49 -818 819 0
-49 52 -819 820 0
52 -65 -82 -820 0
-3 -5 -44 98 0
-6 -11 14 821 0
14 28 -821 822 0
28 -39 -822 823 0
-39 61 -823 824 0
61 80 -86 -824 0
6 -22 -81 825 0
6 -22 -81 -825 0
-13 -39 54 826 0
54 -79 -826 827 0
-79 97 100 -827 0
4 -6 39 828 0
39 50 -84 -828 0
13 14 55 -69 0
9 21 43 829 0
43 52 92 -829 0
8 -11 53 94 0
-37 -41 830 831 0
-37 -41 830 -831 0
-37 -41 -830 831 0
-37 -41 -830 -831 0
45 76 -93 832 0
45 76 -93 -832 0
-27 49 -72 833 0
-72 -76 -88 -833 0
14 17 20 834 0
20 -23 -834 835 0
-23 -67 -835 836 0
-67 69 -836 837 0
69 -70 -837 838 0
-70 80 -838 839 0
80 -84 -839 840 0
-84 -87 91 -840 0
29 -40 -51 90 0
30 48 -53 841 0
30 48 -53 -841 0
1 -18 -57 842 0
-57 62 -842 843 0
62 66 -843 844 0
66 -78 -844 845 0
-78 80 84 -845 0
-2 -21 38 846 0
38 -63 -846 847 0
-63 85 89 -847 0
31 41 -50 848 0
31 41 -50 -848 0
27 31 -34 -82 0
31 -46 57 849 0
57 63 -849 850 0
63 66 -850 851 0
66 68 -851 852 0
68 -82 -98 -852 0
-5 -10 -17 853 0
-17 -36 -853 854 0
-36 -60 -854 855 0
-60 -65 -78 -855 0
42 47 -50 -63 0
31 -33 -36 856 0
-36 -57 -80 -856 0
12 -22 69 857 0
12 -22 69 -857 0
16 24 88 858 0
16 24 88 -858 0
62 63 -78 859 0
62 63 -78 -859 0
30 -39 60 76 0
21 -33 37 860 0
37 39 -860 861 0
39 -42 50 -861 0
31 37 -74 862 0
31 37 -74 -862 0
-22 -96 863 864 0
-22 -96 863 -864 0
-22 -96 -863 864 0
-22 -96 -863 -864 0
-10 21 22 865 0
22 -63 -865 866 0
-63 -67 -866 867 0
-67 -71 98 -867 0
1 -22 35 -100 0
18 52 -57 868 0
-57 -74 -868 869 0
-74 81 -869 870 0
81 86 -91 -870 0
38 -40 -45 871 0
-45 49 -871 872 0
49 55 -872 873 0
55 66 75 -873 0
9 -27 -40 874 0
-40 44 -874 875 0
44 56 -875 876 0
56 -59 -876 877 0
-59 65 -877 878 0
65 -71 91 -878 0
-16 92 879 880 0
-16 92 879 -880 0
-16 92 -879 880 0
-16 92 -879 -880 0
-3 -23 -77 881 0
-77 -97 -100 -881 0
-4 -7 10 882 0
10 -18 -882 883 0
-18 -20 -883 884 0
-20 -64 -94 -884 0
14 -37 -41 885 0
-41 82 -885 886 0
82 93 -94 -886 0
-30 43 -77 92 0
-21 -23 47 887 0
47 75 -887 888 0
75 -85 -888 889 0
-85 -93 -98 -889 0
-32 -35 -60 73 0
36 -76 80 890 0
36 -76 80 -890 0
-24 49 72 77 0
30 -84 891 892 0
30 -84 891 -892 0
30 -84 -891 892 0
30 -84 -891 -892 0
30 -44 -59 64 0
54 96 893 894 0
54 96 893 -894 0
54 96 -893 894 0
54 96 -893 -894 0
-19 -31 48 895 0
-19 -31 48 -895 0
10 48 -54 896 0
-54 76 -896 897 0
76 77 -89 -897 0
-18 20 -40 898 0
-40 44 -898 899 0
44 -59 -899 900 0
-59 73 -900 901 0
73 76 78 -901 0
-42 62 82 902 0
82 85 86 -902 0
-16 36 -50 72 0
-27 59 70 903 0
-27 59 70 -903 0
-43 -75 78 904 0
-43 -75 78 -904 0
6 -15 18 905 0
18 38 -905 906 0
38 39 91 -906 0
-12 48 67 907 0
67 69 71 -907 0
65 70 908 909 0
65 70 908 -909 0
65 70 -908 909 0
65 70 -908 -909 0
-3 -15 -43 910 0
-43 -56 -66 -910 0
26 37 94 911 0
26 37 94 -911 0
-25 31 -67 912 0
-25 31 -67 -912 0
21 40 41 913 0
41 -76 -913 914 0
-76 85 95 -914 0
-17 28 -33 915 0
-33 -52 -915 916 0
-52 54 -916 917 0
54 59 -65 -917 0
62 -64 -97 918 0
62 -64 -97 -918 0
-1 44 46 919 0
46 -61 -919 920 0
-61 63 99 -920 0
-2 -69 -91 921 0
-2 -69 -91 -921 0
20 -64 -87 922 0
20 -64 -87 -922 0
-46 -59 81 923 0
-46 -59 81 -923 0
-3 5 -6 924 0
-3 5 -6 -924 0
22 -23 -37 925 0
-37 47 -925 926 0
47 -78 -80 -926 0
23 32 -44 927 0
-44 -48 84 -927 0
17 -20 -65 96 0
7 18 29 928 0
29 32 61 -928 0
4 -15 -20 929 0
4 -15 -20 -929 0
-2 -7 86 -100 0
25 26 -42 930 0
-42 46 -930 931 0
46 48 -931 932 0
48 69 -932 933 0
69 -76 -85 -933 0
17 54 69 934 0
17 54 69 -934 0
-35 -60 71 935 0
71 72 -935 936 0
72 -87 -90 -936 0
49 52 74 937 0
74 -89 -98 -937 0
49 -70 82 -83 0
35 -41 -53 938 0
-53 -74 -938 939 0
-74 76 -939 940 0
76 77 -940 941 0
77 -79 -941 942 0
-79 81 -942 943 0
81 82 -943 944 0
82 -84 -89 -944 0
-27 48 -69 945 0
-27 48 -69 -945 0
10 -28 946 947 0
10 -28 946 -947 0
10 -28 -946 947 0
10 -28 -946 -947 0
-12 20 21 948 0
21 40 -948 949 0
40 55 -949 950 0
55 -78 -950 951 0
-78 -87 99 -951 0
26 -62 952 953 0
26 -62 952 -953 0
26 -62 -952 953 0
26 -62 -952 -953 0
-5 10 27 954 0
27 -55 -954 955 0
-55 73 -91 -955 0
11 48 65 956 0
11 48 65 -956 0
-2 8 30 957 0
30 44 -957 958 0
44 -59 -958 959 0
-59 -75 -83 -959 0
59 -63 960 961 0
59 -63 960 -961 0
59 -63 -960 961 0
59 -63 -960 -961 0
-24 -31 962 963 0
-24 -31 962 -963 0
-24 -31 -962 963 0
-24 -31 -962 -963 0
-2 49 63 964 0
63 -74 85 -964 0
19 51 -97 965 0
19 51 -97 -965 0
32 39 48 966 0
48 50 -966 967 0
50 55 -967 968 0
55 66 -968 969 0
66 -80 -969 970 0
-80 -83 93 -970 0
6 7 14 971 0
14 -24 -971 972 0
-24 -51 -972 973 0
-51 59 68 -973 0
-2 13 -30 974 0
-30 35 -974 975 0
35 -55 -975 976 0
-55 -86 -95 -976 0
13 17 -46 977 0
-46 -78 97 -977 0
18 -30 55 -72 0
-1 20 53 978 0
53 -86 -99 -978 0
8 22 -28 979 0
-28 31 -979 980 0
31 49 -51 -980 0
7 36 98 981 0
7 36 98 -981 0
-49 -87 982 983 0
-49 -87 982 -983 0
-49 -87 -982 983 0
-49 -87 -982 -983 0
69 70 -75 984 0
-75 -89 -984 985 0
-89 97 -99 -985 0
11 53 81 986 0
11 53 81 -986 0
13 18 -31 987 0
-31 35 -987 988 0
35 -57 -988 989 0
-57 61 -93 -989 0
-53 76 -91 990 0
-91 -96 -100 -990 0
-6 -17 -54 991 0
-54 78 -85 -991 0
15 51 -54 992 0
-54 61 96 -992 0
-12 95 97 993 0
-12 95 97 -993 0
20 23 -50 994 0
-50 56 81 -994 0
-6 9 -19 70 0
13 28 35 995 0
35 -40 -995 996 0
-40 93 94 -996 0
-52 92 98 997 0
-52 92 98 -997 0
-10 -51 54 998 0
54 -75 -92 -998 0
6 -12 -16 999 0
-16 -65 -999 1000 0
-65 84 -1000 1001 0
84 89 98 -1001 0
15 20 -35 1002 0
-35 -61 -1002 1003 0
-61 72 -1003 1004 0
72 74 -1004 1005 0
74 -95 -97 -1005 0
-35 -64 1006 1007 0
-35 -64 1006 -1007 0
-35 -64 -1006 1007 0
-35 -64 -1006 -1007 0
45 73 100 1008 0
45 73 100 -1008 0
-12 -22 -45 1009 0
-45 52 -1009 1010 0
52 -58 89 -1010 0
46 -50 1011 1012 0
46 -50 1011 -1012 0
46 -50 -1011 1012 0
46 -50 -1011 -1012 0
11 12 -47 1013 0
-47 78 -1013 1014 0
78 81 -1014 1015 0
81 -88 94 -1015 0
19 20 -27 1016 0
-27 -32 -1016 1017 0
-32 -38 97 -1017 0
-6 13 -14 1018 0
-14 -51 -1018 1019 0
-51 60 -1019 1020 0
60 -63 -1020 1021 0
-63 -87 -91 -1021 0
-28 -34 -47 1022 0
-47 74 -1022 1023 0
74 76 93 -1023 0
13 20 -21 1024 0
-21 59 -1024 1025 0
59 -69 -1025 1026 0
-69 85 -96 -1026 0
-2 7 -14 1027 0
-14 -29 -1027 1028 0
-29 -33 -1028 1029 0
-33 -38 -68 -1029 0
5 -31 -45 1030 0
-45 -49 -1030 1031 0
-49 -53 -1031 1032 0
-53 63 -82 -1032 0
16 23 -34 1033 0
-34 -63 65 -1033 0
-6 -33 -36 49 0
45 -50 57 1034 0
57 58 93 -1034 0
2 -12 32 1035 0
32 34 -1035 1036 0
34 47 -1036 1037 0
47 48 -1037 1038 0
48 64 -1038 1039 0
64 68 -1039 1040 0
68 -74 -98 -1040 0
27 40 43 1041 0
43 45 -1041 1042 0
45 -59 -76 -1042 0
-16 -39 -45 1043 0
-16 -39 -45 -1043 0
28 29 -35 1044 0
-35 56 -75 -1044 0
25 51 -64 1045 0
-64 -74 -85 -1045 0
-8 16 38 1046 0
38 44 87 -1046 0
12 -53 -60 87 0
44 -57 -80 -99 0
-6 -18 42 1047 0
42 43 -54 -1047 0
16 -21 28 1048 0
28 55 -1048 1049 0
55 -56 -1049 1050 0
-56 -67 -1050 1051 0
-67 -82 -85 -1051 0
-5 -8 -44 1052 0
-44 -49 -1052 1053 0
-49 55 -1053 1054 0
55 56 84 -1054 0
-2 6 64 1055 0
64 -93 96 -1055 0
-53 58 87 1056 0
-53 58 87 -1056 0
40 -62 71 1057 0
71 -72 -75 -1057 0
-2 -77 87 1058 0
-2 -77 87 -1058 0
10 -11 28 1059 0
28 29 -1059 1060 0
29 40 -1060 1061 0
40 48 -1061 1062 0
48 -56 -63 -1062 0
-24 28 -36 1063 0
-36 39 -1063 1064 0
39 -40 -1064 1065 0
-40 74 86 -1065 0
-40 56 74 -80 0
59 -81 -85 -97 0
21 -34 51 75 0
-17 -26 58 1066 0
-17 -26 58 -1066 0
-30 -32 38 86 0
-4 -27 -33 68 0
5 15 16 1067 0
16 -19 -1067 1068 0
-19 -29 -1068 1069 0
-29 44 -1069 1070 0
44 -55 -1070 1071 0
-55 94 95 -1071 0
-6 9 64 88 0
-2 18 58 1072 0
58 -97 100 -1072 0
8 -15 24 1073 0
24 -31 -1073 1074 0
-31 55 64 -1074 0
-10 13 19 1075 0
19 -26 -1075 1076 0
-26 -29 -1076 1077 0
-29 50 -1077 1078 0
50 -58 -1078 1079 0
-58 -75 93 -1079 0
-11 14 -17 1080 0
-17 -47 -1080 1081 0
-47 84 -88 -1081 0
3 -4 -22 1082 0
-22 -62 -1082 1083 0
-62 65 -1083 1084 0
65 -77 -1084 1085 0
-77 90 -95 -1085 0
10 49 61 1086 0
61 -83 -92 -1086 0
14 41 -69 71 0
-4 59 1087 1088 0
-4 59 1087 -1088 0
-4 59 -1087 1088 0
-4 59 -1087 -1088 0
12 -49 -78 1089 0
12 -49 -78 -1089 0
-19 -97 1090 1091 0
-19 -97 1090 -1091 0
-19 -97 -1090 1091 0
-19 -97 -1090 -1091 0
16 -30 -42 1092 0
-42 71 -77 -1092 0
-10 -24 30 1093 0
30 37 -1093 1094 0
37 64 -1094 1095 0
64 -68 -1095 1096 0
-68 -87 -96 -1096 0
-64 72 1097 1098 0
-64 72 1097 -1098 0
-64 72 -1097 1098 0
-64 72 -1097 -1098 0
-58 71 96 1099 0
-58 71 96 -1099 0
-9 25 40 1100 0
40 -46 -1100 1101 0
-46 -56 63 -1101 0
-11 35 71 81 0
-1 -12 -17 1102 0
-17 88 -89 -1102 0
-4 -19 -95 1103 0
-4 -19 -95 -1103 0
-6 21 39 91 0
-3 -15 -21 1104 0
-21 44 -1104 1105 0
44 49 -1105 1106 0
49 65 -1106 1107 0
65 67 -1107 1108 0
67 -75 -1108 1109 0
-75 -93 96 -1109 0
6 46 51 66 0
6 -7 19 1110 0
19 64 -1110 1111 0
64 -84 -1111 1112 0
-84 98 -100 -1112 0
-12 15 17 -38 0
28 39 -41 1113 0
-41 -45 -1113 1114 0
-45 72 -1114 1115 0
72 88 90 -1115 0
-12 16 -33 1116 0
-33 46 -1116 1117 0
46 95 -100 -1117 0
-38 -73 1118 1119 0
-38 -73 1118 -1119 0
-38 -73 -1118 1119 0
-38 -73 -1118 -1119 0
4 -58 -70 1120 0
-70 90 -100 -1120 0
53 -89 -98 1121 0
53 -89 -98 -1121 0
8 21 -41 1122 0
-41 -50 -1122 1123 0
-50 -57 -1123 1124 0
-57 61 -1124 1125 0
61 -74 -1125 1126 0
-74 98 100 -1126 0
-12 -23 -40 1127 0
-40 43 -58 -1127 0
-1 -33 -83 1128 0
-1 -33 -83 -1128 0
-34 54 -59 62 0
16 -26 30 1129 0
30 33 -1129 1130 0
33 -35 -1130 1131 0
-35 -44 -1131 1132 0
-44 -70 -1132 1133 0
-70 -81 92 -1133 0
19 24 31 1134 0
31 -80 -1134 1135 0
-80 85 -98 -1135 0
25 63 1136 1137 0
25 63 1136 -1137 0
25 63 -1136 1137 0
25 63 -1136 -1137 0
-28 38 56 1138 0
56 63 64 -1138 0
7 15 18 1139 0
18 25 -1139 1140 0
25 -58 -1140 1141 0
-58 61 -1141 1142 0
61 -74 -91 -1142 0
-12 -14 -53 1143 0
-12 -14 -53 -1143 0
-15 -20 23 1144 0
23 37 -1144 1145 0
37 -48 -1145 1146 0
-48 70 -1146 1147 0
70 89 -95 -1147 0
6 9 15 1148 0
15 -31 -90 -1148 0
-22 -48 63 -88 0
13 -15 48 1149 0
48 59 -93 -1149 0
1 22 23 1150 0
23 64 -78 -1150 0
3 18 30 1151 0
30 52 61 -1151 0
17 -20 62 1152 0
17 -20 62 -1152 0
-2 -46 -50 1153 0
-2 -46 -50 -1153 0
54 85 1154 1155 0
54 85 1154 -1155 0
54 85 -1154 1155 0
54 85 -1154 -1155 0
-36 58 -81 1156 0
-81 -85 -97 -1156 0
23 26 29 1157 0
29 -32 -1157 1158 0
-32 -76 -1158 1159 0
-76 78 -1159 1160 0
78 -79 -1160 1161 0
-79 89 -1161 1162 0
89 -93 -1162 1163 0
-93 -96 100 -1163 0
38 -49 -60 99 0
39 57 -62 1164 0
39 57 -62 -1164 0
10 -27 -66 1165 0
-66 71 -1165 1166 0
71 75 -1166 1167 0
75 -87 -1167 1168 0
-87 89 93 -1168 0
-11 -30 47 1169 0
47 -72 -1169 1170 0
-72 94 98 -1170 0
40 50 -59 1171 0
40 50 -59 -1171 0
36 40 -43 -91 0
-7 75 1172 1173 0
-7 75 1172 -1173 0
-7 75 -1172 1173 0
-7 75 -1172 -1173 0
40 -55 66 1174 0
66 72 -1174 1175 0
72 75 -1175 1176 0
75 77 -91 -1176 0
-14 -19 -26 1177 0
-26 -45 -1177 1178 0
-45 -69 -1178 1179 0
-69 -74 -87 -1179 0
51 56 -59 -72 0
40 -42 -45 1180 0
-45 -66 -89 -1180 0
21 -31 78 1181 0
21 -31 78 -1181 0
25 33 97 1182 0
25 33 97 -1182 0
71 72 -87 1183 0
71 72 -87 -1183 0
39 -48 69 85 0
30 -42 46 1184 0
46 48 -1184 1185 0
48 -51 59 -1185 0
-5 40 46 -83 0
7 -31 1186 1187 0
7 -31 1186 -1187 0
7 -31 -1186 1187 0
7 -31 -1186 -1187 0
-9 -19 30 1188 0
30 31 -1188 1189 0
31 -72 -1189 1190 0
-72 -76 -80 -1190 0
10 -31 44 1191 0
10 -31 44 -1191 0
27 61 -66 1192 0
-66 -83 -1192 1193 0
-83 90 -1193 1194 0
90 95 -100 -1194 0
47 -49 -54 1195 0
-54 58 -1195 1196 0
58 64 -1196 1197 0
64 75 84 -1197 0
1 18 -36 1198 0
-36 -49 -1198 1199 0
-49 53 -1199 1200 0
53 65 -1200 1201 0
65 -68 -1201 1202 0
-68 74 -1202 1203 0
74 -80 100 -1203 0
-6 -9 -25 1204 0
-6 -9 -25 -1204 0
-3 -12 -32 -86 0
2 -3 -13 1205 0
-13 -16 -1205 1206 0
-16 19 -1206 1207 0
19 -27 -1207 1208 0
-27 -29 -73 -1208 0
1 23 -46 1209 0
-46 -50 91 -1209 0
-2 -7 -39 1210 0
-39 52 -86 -1210 0
-30 -32 56 1211 0
56 84 -94 -1211 0
-41 -44 -69 82 0
45 -85 89 1212 0
45 -85 89 -1212 0
-33 58 81 86 0
39 -93 1213 1214 0
39 -93 1213 -1214 0
39 -93 -1213 1214 0
39 -93 -1213 -1214 0
5 39 -53 1215 0
-53 -68 73 -1215 0
-28 -40 57 1216 0
-28 -40 57 -1216 0
19 57 -63 1217 0
-63 85 -1217 1218 0
85 86 -98 -1218 0
-27 29 -49 1219 0
-49 53 -1219 1220 0
53 -68 -1220 1221 0
-68 82 -1221 1222 0
82 85 87 -1222 0
-51 71 91 1223 0
91 94 95 -1223 0
-25 45 -59 81 0
-36 68 79 1224 0
-36 68 79 -1224 0
-52 -84 87 1225 0
-52 -84 87 -1225 0
15 -24 27 1226 0
27 47 -1226 1227 0
47 48 100 -1227 0
-21 57 76 1228 0
76 78 80 -1228 0
74 79 1229 1230 0
74 79 1229 -1230 0
74 79 -1229 1230 0
74 79 -1229 -1230 0
3 -12 -24 1231 0
-24 -52 -1231 1232 0
-52 -65 -75 -1232 0
35 46 1233 1234 0
35 46 1233 -1234 0
35 46 -1233 1234 0
35 46 -1233 -1234 0
4 -34 40 -76 0
30 49 50 1235 0
50 -85 94 -1235 0
-6 -26 37 1236 0
37 -42 -1236 1237 0
-42 -61 -1237 1238 0
-61 63 -1238 1239 0
63 68 -74 -1239 0
8 71 -73 1240 0
8 71 -73 -1240 0
-10 53 55 1241 0
55 -70 72 -1241 0
-11 -78 -100 1242 0
-11 -78 -100 -1242 0
29 -73 -96 1243 0
29 -73 -96 -1243 0
-55 -68 90 1244 0
-55 -68 90 -1244 0
-12 14 -15 1245 0
-12 14 -15 -1245 0
31 -32 -46 1246 0
-46 56 -1246 1247 0
56 -87 -89 -1247 0
5 32 41 1248 0
41 -53 -1248 1249 0
-53 -57 93 -1249 0
26 -29 -74 1250 0
26 -29 -74 -1250 0
16 27 38 1251 0
38 41 70 -1251 0
-9 13 -24 -29 0
-11 -16 95 1252 0
-11 -16 95 -1252 0
34 35 -51 1253 0
-51 55 -1253 1254 0
55 57 -1254 1255 0
57 78 -1255 1256 0
78 -85 -94 -1256 0
26 63 78 1257 0
26 63 78 -1257 0
-7 -44 -69 1258 0
-69 80 -1258 1259 0
80 81 -1259 1260 0
81 -96 -99 -1260 0
58 61 83 -98 0
58 -79 91 -92 0
44 -50 -62 1261 0
-62 -83 -1261 1262 0
-83 85 -1262 1263 0
85 86 -1263 1264 0
86 -88 -1264 1265 0
-88 90 -1265 1266 0
90 91 -1266 1267 0
91 -93 -98 -1267 0
-36 57 -78 1268 0
-36 57 -78 -1268 0
8 19 -37 1269 0
8 19 -37 -1269 0
-21 29 30 1270 0
30 49 -1270 1271 0
49 64 -1271 1272 0
64 -87 -96 -1272 0
35 -71 1273 1274 0
35 -71 1273 -1274 0
35 -71 -1273 1274 0
35 -71 -1273 -1274 0
-14 19 36 1275 0
36 -64 -1275 1276 0
-64 82 -100 -1276 0
20 57 74 1277 0
20 57 74 -1277 0
-11 17 39 1278 0
39 53 -1278 1279 0
53 -68 -1279 1280 0
-68 -84 -92 -1280 0
68 -72 1281 1282 0
68 -72 1281 -1282 0
68 -72 -1281 1282 0
68 -72 -1281 -1282 0
-33 -40 1283 1284 0
-33 -40 1283 -1284 0
-33 -40 -1283 1284 0
-33 -40 -1283 -1284 0
-6 -11 58 1285 0
58 72 -1285 1286 0
72 -83 94 -1286 0
2 28 60 1287 0
2 28 60 -1287 0
41 48 57 1288 0
57 59 -1288 1289 0
59 64 -1289 1290 0
64 75 -1290 1291 0
75 -89 -92 -1291 0
-4 15 16 1292 0
16 23 -1292 1293 0
23 -33 -1293 1294 0
-33 -60 -1294 1295 0
-60 68 77 -1295 0
6 -11 22 1296 0
22 -39 -1296 1297 0
-39 44 -1297 1298 0
44 -64 -95 -1298 0
22 26 -55 -87 0
-8 27 -39 1299 0
-39 64 -81 -1299 0
-10 29 62 -95 0
7 17 31 1300 0
31 -37 -1300 1301 0
-37 40 -1301 1302 0
40 58 -60 -1302 0
16 45 1303 1304 0
16 45 1303 -1304 0
16 45 -1303 1304 0
16 45 -1303 -1304 0
6 -8 -58 -96 0
78 79 -84 -98 0
20 62 90 1305 0
20 62 90 -1305 0
-2 13 1306 1307 0
-2 13 1306 -1307 0
-2 13 -1306 1307 0
-2 13 -1306 -1307 0
-5 -9 22 1308 0
22 27 -1308 1309 0
27 -40 -1309 1310 0
-40 44 -1310 1311 0
44 -66 70 -1311 0
-62 85 -100 1312 0
-62 85 -100 -1312 0
5 -15 -26 1313 0
-26 -63 -1313 1314 0
-63 87 -94 -1314 0
4 6 24 1315 0
24 60 -1315 1316 0
60 -63 70 -1316 0
29 32 -59 1317 0
-59 65 90 -1317 0
-15 18 -28 79 0
2 3 34 1318 0
2 3 34 -1318 0
1 7 22 1319 0
22 37 -1319 1320 0
37 44 -49 -1320 0
-1 -61 1321 1322 0
-1 -61 1321 -1322 0
-1 -61 -1321 1322 0
-1 -61 -1321 -1322 0
7 -19 -60 1323 0
-60 63 -84 -1323 0
-4 -6 15 1324 0
15 -21 -1324 1325 0
-21 -25 -1325 1326 0
-25 -74 -1326 1327 0
-74 93 98 -1327 0
24 29 -44 1328 0
-44 -70 -1328 1329 0
-70 81 83 -1329 0
9 -44 -73 1330 0
9 -44 -73 -1330 0
54 82 1331 1332 0
54 82 1331 -1332 0
54 82 -1331 1332 0
54 82 -1331 -1332 0
-21 -31 -54 1333 0
-54 61 -1333 1334 0
61 -67 98 -1334 0
3 55 -59 1335 0
3 55 -59 -1335 0
6 20 21 1336 0
21 -56 -1336 1337 0
-56 87 -1337 1338 0
87 90 -97 -1338 0
28 29 -36 1339 0
-36 -41 -47 -1339 0
2 -15 22 1340 0
22 -23 -1340 1341 0
-23 -60 -1341 1342 0
-60 69 -1342 1343 0
69 -72 -1343 1344 0
-72 -96 -100 -1344 0
-5 -37 -43 1345 0
-43 -56 -1345 1346 0
-56 83 85 -1346 0
22 29 -30 1347 0
-30 68 -1347 1348 0
68 -78 94 -1348 0
-11 16 -23 1349 0
-23 -38 -1349 1350 0
-38 -42 -1350 1351 0
-42 -47 -77 -1351 0
14 -40 -54 1352 0
-54 -58 -1352 1353 0
-58 -62 -1353 1354 0
-62 72 -91 -1354 0
25 32 -43 1355 0
-43 -72 74 -1355 0
2 -15 -42 1356 0
-42 -45 58 -1356 0
-7 54 -59 1357 0
-59 66 67 -1357 0
11 -21 41 1358 0
41 43 -1358 1359 0
43 56 -1359 1360 0
56 57 -1360 1361 0
57 73 -1361 1362 0
73 77 -83 -1362 0
36 49 52 1363 0
52 54 -1363 1364 0
54 -68 -85 -1364 0
-25 -48 -54 1365 0
-25 -48 -54 -1365 0
37 38 -44 1366 0
-44 65 -84 -1366 0
34 60 -73 1367 0
-73 -83 -94 -1367 0
-17 25 47 1368 0
47 53 96 -1368 0
-8 21 -62 1369 0
-62 -69 96 -1369 0
53 -66 -89 1370 0
53 -66 -89 -1370 0
-15 -27 51 1371 0
51 52 -63 -1371 0
25 -30 37 1372 0
37 64 -1372 1373 0
64 -65 -1373 1374 0
-65 -76 -1374 1375 0
-76 -91 -94 -1375 0
-2 5 -14 1376 0
-14 -17 -1376 1377 0
-17 -53 -1377 1378 0
-53 -58 -1378 1379 0
-58 64 -1379 1380 0
64 65 93 -1380 0
-11 15 73 1381 0
-11 15 73 -1381 0
-62 67 96 1382 0
-62 67 96 -1382 0
49 -71 80 1383 0
80 -81 -84 -1383 0
-11 -86 96 1384 0
-11 -86 96 -1384 0
19 -20 37 1385 0
37 38 -1385 1386 0
38 49 -1386 1387 0
49 57 -1387 1388 0
57 -65 -72 -1388 0
-33 37 -45 1389 0
-45 48 -1389 1390 0
48 -49 -1390 1391 0
-49 83 95 -1391 0
-6 -49 65 1392 0
65 83 -89 -1392 0
68 -90 -94 1393 0
68 -90 -94 -1393 0
30 -43 60 84 0
-26 -35 67 1394 0
-26 -35 67 -1394 0
-39 -41 47 95 0
3 4 -13 1395 0
-13 -36 -1395 1396 0
-36 -42 77 -1396 0
14 24 25 1397 0
25 -28 -1397 1398 0
-28 -38 -1398 1399 0
-38 53 -64 -1399 0
-6 9 -15 1400 0
-15 18 -1400 1401 0
18 73 97 -1401 0
-11 27 67 1402 0
-11 27 67 -1402 0
17 -24 33 1403 0
33 -40 -1403 1404 0
-40 64 73 -1404 0
-19 22 28 1405 0
28 -35 -1405 1406 0
-35 -38 -1406 1407 0
-38 59 -1407 1408 0
59 -67 -84 -1408 0
-4 -20 23 1409 0
23 -26 -1409 1410 0
-26 -56 -1410 1411 0
-56 93 -97 -1411 0
-1 12 -13 1412 0
-13 -31 -1412 1413 0
-31 -71 -1413 1414 0
-71 74 -1414 1415 0
74 -86 99 -1415 0
19 58 70 -92 0
23 50 -78 80 0
-13 68 1416 1417 0
-13 68 1416 -1417 0
-13 68 -1416 1417 0
-13 68 -1416 -1417 0
-6 21 -58 -87 0
-5 25 -39 1418 0
-39 -51 -1418 1419 0
-51 80 -86 -1419 0
-19 -33 39 1420 0
39 46 -1420 1421 0
46 73 -1421 1422 0
73 -77 -96 -1422 0
5 -73 81 1423 0
5 -73 81 -1423 0
-67 80 1424 1425 0
-67 80 1424 -1425 0
-67 80 -1424 1425 0
-67 80 -1424 -1425 0
-18 34 49 1426 0
49 -55 -1426 1427 0
-55 -65 72 -1427 0
-20 44 80 90 0
-10 -21 -26 1428 0
-26 97 -98 -1428 0
-4 -59 1429 1430 0
-4 -59 1429 -1430 0
-4 -59 -1429 1430 0
-4 -59 -1429 -1430 0
-13 -28 1431 1432 0
-13 -28 1431 -1432 0
-13 -28 -1431 1432 0
-13 -28 -1431 -1432 0
-2 5 -15 1433 0
-15 30 -1433 1434 0
30 48 100 -1434 0
-12 -24 -30 1435 0
-30 53 -1435 1436 0
53 58 -1436 1437 0
58 74 -1437 1438 0
74 76 -84 -1438 0
15 55 60 75 0
